formal/cpu_formal/model/design_smt2.smt2
; SMT-LIBv2 description generated by Yosys 0.66 (git sha1 7f8fdfd8d7bc08c749a2a969388d3425d4f369d5, clang++ 17.0.0 -fPIC -O3)
; yosys-smt2-module cpu_assertions
(declare-sort |cpu_assertions_s| 0)
(declare-fun |cpu_assertions_is| (|cpu_assertions_s|) Bool)
; yosys-smt2-witness {"offset": 0, "path": ["$auto$async2sync.cc:116:execute$20"], "smtname": 0, "smtoffset": 0, "type": "reg", "width": 1}
(declare-fun |cpu_assertions#0| (|cpu_assertions_s|) (_ BitVec 1)) ; $auto$async2sync.cc:116:execute$20
; yosys-smt2-register $auto$async2sync.cc:116:execute$20 1
(define-fun |cpu_assertions_n $auto$async2sync.cc:116:execute$20| ((state |cpu_assertions_s|)) Bool (= ((_ extract 0 0) (|cpu_assertions#0| state)) #b1))
; yosys-smt2-witness {"offset": 0, "path": ["$auto$async2sync.cc:107:execute$16"], "smtname": 1, "smtoffset": 0, "type": "reg", "width": 1}
(declare-fun |cpu_assertions#1| (|cpu_assertions_s|) (_ BitVec 1)) ; $auto$async2sync.cc:107:execute$16
; yosys-smt2-register $auto$async2sync.cc:107:execute$16 1
(define-fun |cpu_assertions_n $auto$async2sync.cc:107:execute$16| ((state |cpu_assertions_s|)) Bool (= ((_ extract 0 0) (|cpu_assertions#1| state)) #b1))
(declare-fun |cpu_assertions#2| (|cpu_assertions_s|) Bool) ; \clk
; yosys-smt2-input clk 1
; yosys-smt2-wire clk 1
; yosys-smt2-clock clk posedge
; yosys-smt2-witness {"offset": 0, "path": ["\\clk"], "smtname": "clk", "smtoffset": 0, "type": "posedge", "width": 1}
; yosys-smt2-witness {"offset": 0, "path": ["\\clk"], "smtname": "clk", "smtoffset": 0, "type": "input", "width": 1}
(define-fun |cpu_assertions_n clk| ((state |cpu_assertions_s|)) Bool (|cpu_assertions#2| state))
(declare-fun |cpu_assertions#3| (|cpu_assertions_s|) (_ BitVec 32)) ; \pc
; yosys-smt2-input pc 32
; yosys-smt2-wire pc 32
; yosys-smt2-witness {"offset": 0, "path": ["\\pc"], "smtname": "pc", "smtoffset": 0, "type": "input", "width": 32}
(define-fun |cpu_assertions_n pc| ((state |cpu_assertions_s|)) (_ BitVec 32) (|cpu_assertions#3| state))
(declare-fun |cpu_assertions#4| (|cpu_assertions_s|) Bool) ; \reset
; yosys-smt2-input reset 1
; yosys-smt2-wire reset 1
; yosys-smt2-witness {"offset": 0, "path": ["\\reset"], "smtname": "reset", "smtoffset": 0, "type": "input", "width": 1}
(define-fun |cpu_assertions_n reset| ((state |cpu_assertions_s|)) Bool (|cpu_assertions#4| state))
(define-fun |cpu_assertions#5| ((state |cpu_assertions_s|)) (_ BitVec 1) (bvnot (ite (|cpu_assertions#2| state) #b1 #b0))) ; $auto$rtlil.cc:3255:Not$37
; yosys-smt2-assume 0 $auto$formalff.cc:987:execute$38
(define-fun |cpu_assertions_u 0| ((state |cpu_assertions_s|)) Bool (or (= ((_ extract 0 0) (|cpu_assertions#5| state)) #b1) (not true))) ; $auto$formalff.cc:987:execute$38
; yosys-smt2-assert 0 _witness_.check_assert_cpu_assertions_sv_9_6 cpu_assertions.sv:9.9-9.24
(define-fun |cpu_assertions_a 0| ((state |cpu_assertions_s|)) Bool (or (= ((_ extract 0 0) (|cpu_assertions#0| state)) #b1) (not (= ((_ extract 0 0) (|cpu_assertions#1| state)) #b1)))) ; _witness_.check_assert_cpu_assertions_sv_9_6
(define-fun |cpu_assertions#6| ((state |cpu_assertions_s|)) (_ BitVec 1) (ite (|cpu_assertions#4| state) #b1 #b0)) ; $assert$cpu_assertions.sv:9$6_EN
(define-fun |cpu_assertions#7| ((state |cpu_assertions_s|)) Bool (not (or  (= ((_ extract 0 0) (|cpu_assertions#3| state)) #b1) (= ((_ extract 1 1) (|cpu_assertions#3| state)) #b1) (= ((_ extract 2 2) (|cpu_assertions#3| state)) #b1) (= ((_ extract 3 3) (|cpu_assertions#3| state)) #b1) (= ((_ extract 4 4) (|cpu_assertions#3| state)) #b1) (= ((_ extract 5 5) (|cpu_assertions#3| state)) #b1) (= ((_ extract 6 6) (|cpu_assertions#3| state)) #b1) (= ((_ extract 7 7) (|cpu_assertions#3| state)) #b1) (= ((_ extract 8 8) (|cpu_assertions#3| state)) #b1) (= ((_ extract 9 9) (|cpu_assertions#3| state)) #b1) (= ((_ extract 10 10) (|cpu_assertions#3| state)) #b1) (= ((_ extract 11 11) (|cpu_assertions#3| state)) #b1) (= ((_ extract 12 12) (|cpu_assertions#3| state)) #b1) (= ((_ extract 13 13) (|cpu_assertions#3| state)) #b1) (= ((_ extract 14 14) (|cpu_assertions#3| state)) #b1) (= ((_ extract 15 15) (|cpu_assertions#3| state)) #b1) (= ((_ extract 16 16) (|cpu_assertions#3| state)) #b1) (= ((_ extract 17 17) (|cpu_assertions#3| state)) #b1) (= ((_ extract 18 18) (|cpu_assertions#3| state)) #b1) (= ((_ extract 19 19) (|cpu_assertions#3| state)) #b1) (= ((_ extract 20 20) (|cpu_assertions#3| state)) #b1) (= ((_ extract 21 21) (|cpu_assertions#3| state)) #b1) (= ((_ extract 22 22) (|cpu_assertions#3| state)) #b1) (= ((_ extract 23 23) (|cpu_assertions#3| state)) #b1) (= ((_ extract 24 24) (|cpu_assertions#3| state)) #b1) (= ((_ extract 25 25) (|cpu_assertions#3| state)) #b1) (= ((_ extract 26 26) (|cpu_assertions#3| state)) #b1) (= ((_ extract 27 27) (|cpu_assertions#3| state)) #b1) (= ((_ extract 28 28) (|cpu_assertions#3| state)) #b1) (= ((_ extract 29 29) (|cpu_assertions#3| state)) #b1) (= ((_ extract 30 30) (|cpu_assertions#3| state)) #b1) (= ((_ extract 31 31) (|cpu_assertions#3| state)) #b1)))) ; $eq$cpu_assertions.sv:9$7_Y
(define-fun |cpu_assertions_a| ((state |cpu_assertions_s|)) Bool 
  (|cpu_assertions_a 0| state)
)
(define-fun |cpu_assertions_u| ((state |cpu_assertions_s|)) Bool 
  (|cpu_assertions_u 0| state)
)
(define-fun |cpu_assertions_i| ((state |cpu_assertions_s|)) Bool (and
  (= (= ((_ extract 0 0) (|cpu_assertions#0| state)) #b1) true) ; $auto$async2sync.cc:116:execute$20
  (= (= ((_ extract 0 0) (|cpu_assertions#1| state)) #b1) false) ; $auto$async2sync.cc:107:execute$16
))
(define-fun |cpu_assertions_h| ((state |cpu_assertions_s|)) Bool true)
(define-fun |cpu_assertions_t| ((state |cpu_assertions_s|) (next_state |cpu_assertions_s|)) Bool (and
  (= (|cpu_assertions#6| state) (|cpu_assertions#1| next_state)) ; $auto$async2sync.cc:110:execute$18 $auto$async2sync.cc:107:execute$16
  (= (ite (|cpu_assertions#7| state) #b1 #b0) (|cpu_assertions#0| next_state)) ; $auto$async2sync.cc:118:execute$21 $auto$async2sync.cc:116:execute$20
)) ; end of module cpu_assertions
; yosys-smt2-module cpu
(declare-sort |cpu_s| 0)
(declare-fun |cpu_is| (|cpu_s|) Bool)
(declare-fun |cpu#0| (|cpu_s|) Bool) ; \clk
; yosys-smt2-input clk 1
; yosys-smt2-wire clk 1
; yosys-smt2-clock clk posedge
; yosys-smt2-witness {"offset": 0, "path": ["\\clk"], "smtname": "clk", "smtoffset": 0, "type": "posedge", "width": 1}
; yosys-smt2-witness {"offset": 0, "path": ["\\clk"], "smtname": "clk", "smtoffset": 0, "type": "input", "width": 1}
(define-fun |cpu_n clk| ((state |cpu_s|)) Bool (|cpu#0| state))
; yosys-smt2-anyinit cpu#1 32 cpu.sv:7.1-12.4
; yosys-smt2-witness {"offset": 0, "path": ["\\pc"], "smtname": 1, "smtoffset": 0, "type": "init", "width": 32}
(declare-fun |cpu#1| (|cpu_s|) (_ BitVec 32)) ; \pc
; yosys-smt2-output pc 32
; yosys-smt2-register pc 32
; yosys-smt2-wire pc 32
(define-fun |cpu_n pc| ((state |cpu_s|)) (_ BitVec 32) (|cpu#1| state))
(declare-fun |cpu#2| (|cpu_s|) Bool) ; \reset
; yosys-smt2-input reset 1
; yosys-smt2-wire reset 1
; yosys-smt2-witness {"offset": 0, "path": ["\\reset"], "smtname": "reset", "smtoffset": 0, "type": "input", "width": 1}
(define-fun |cpu_n reset| ((state |cpu_s|)) Bool (|cpu#2| state))
(define-fun |cpu#3| ((state |cpu_s|)) (_ BitVec 1) (bvnot (ite (|cpu#0| state) #b1 #b0))) ; $auto$rtlil.cc:3255:Not$34
; yosys-smt2-assume 0 $auto$formalff.cc:987:execute$35
(define-fun |cpu_u 0| ((state |cpu_s|)) Bool (or (= ((_ extract 0 0) (|cpu#3| state)) #b1) (not true))) ; $auto$formalff.cc:987:execute$35
(define-fun |cpu#4| ((state |cpu_s|)) (_ BitVec 32) (bvadd (|cpu#1| state) #b00000000000000000000000000000100)) ; $add$cpu.sv:11$9_Y
(define-fun |cpu#5| ((state |cpu_s|)) (_ BitVec 32) (ite (|cpu#2| state) #b00000000000000000000000000000000 (|cpu#4| state))) ; $0\pc[31:0]
(define-fun |cpu_a| ((state |cpu_s|)) Bool true)
(define-fun |cpu_u| ((state |cpu_s|)) Bool 
  (|cpu_u 0| state)
)
(define-fun |cpu_i| ((state |cpu_s|)) Bool true)
(define-fun |cpu_h| ((state |cpu_s|)) Bool true)
(define-fun |cpu_t| ((state |cpu_s|) (next_state |cpu_s|)) Bool 
  (= (|cpu#5| state) (|cpu#1| next_state)) ; $procdff$15 \pc
) ; end of module cpu
; yosys-smt2-module cpu_formal
(declare-sort |cpu_formal_s| 0)
(declare-fun |cpu_formal_is| (|cpu_formal_s|) Bool)
; yosys-smt2-anyseq cpu_formal#0 1 $auto$setundef.cc:350:execute$31
; yosys-smt2-witness {"offset": 0, "path": ["\\clk"], "smtname": 0, "smtoffset": 0, "type": "seq", "width": 1}
(declare-fun |cpu_formal#0| (|cpu_formal_s|) (_ BitVec 1)) ; \clk
; yosys-smt2-wire clk 1
; yosys-smt2-clock clk posedge
(define-fun |cpu_formal_n clk| ((state |cpu_formal_s|)) Bool (= ((_ extract 0 0) (|cpu_formal#0| state)) #b1))
; yosys-smt2-cell cpu dut
; yosys-smt2-witness {"path": ["\\dut"], "smtname": "dut", "type": "cell"}
(declare-fun |cpu_formal#1| (|cpu_formal_s|) (_ BitVec 32)) ; \pc
(declare-fun |cpu_formal_h dut| (|cpu_formal_s|) |cpu_s|)
; yosys-smt2-wire pc 32
(define-fun |cpu_formal_n pc| ((state |cpu_formal_s|)) (_ BitVec 32) (|cpu_formal#1| state))
; yosys-smt2-wire reset 1
(define-fun |cpu_formal_n reset| ((state |cpu_formal_s|)) Bool false)
(define-fun |cpu_formal#2| ((state |cpu_formal_s|)) (_ BitVec 1) (bvnot (|cpu_formal#0| state))) ; $auto$rtlil.cc:3255:Not$40
; yosys-smt2-assume 0 $auto$formalff.cc:987:execute$41
(define-fun |cpu_formal_u 0| ((state |cpu_formal_s|)) Bool (or (= ((_ extract 0 0) (|cpu_formal#2| state)) #b1) (not true))) ; $auto$formalff.cc:987:execute$41
; yosys-smt2-cell cpu_assertions monitor_inst
; yosys-smt2-witness {"path": ["\\monitor_inst"], "smtname": "monitor_inst", "type": "cell"}
(declare-fun |cpu_formal_h monitor_inst| (|cpu_formal_s|) |cpu_assertions_s|)
(define-fun |cpu_formal_a| ((state |cpu_formal_s|)) Bool (and
  (|cpu_assertions_a| (|cpu_formal_h monitor_inst| state))
  (|cpu_a| (|cpu_formal_h dut| state))
))
(define-fun |cpu_formal_u| ((state |cpu_formal_s|)) Bool (and
  (|cpu_formal_u 0| state)
  (|cpu_assertions_u| (|cpu_formal_h monitor_inst| state))
  (|cpu_u| (|cpu_formal_h dut| state))
))
(define-fun |cpu_formal_i| ((state |cpu_formal_s|)) Bool (and
  (|cpu_assertions_i| (|cpu_formal_h monitor_inst| state))
  (|cpu_i| (|cpu_formal_h dut| state))
))
(define-fun |cpu_formal_h| ((state |cpu_formal_s|)) Bool (and
  (= (|cpu_formal_is| state) (|cpu_assertions_is| (|cpu_formal_h monitor_inst| state)))
  (= (= ((_ extract 0 0) (|cpu_formal#0| state)) #b1) (|cpu_assertions_n clk| (|cpu_formal_h monitor_inst| state))) ; cpu_assertions.clk
  (= (|cpu_formal#1| state) (|cpu_assertions_n pc| (|cpu_formal_h monitor_inst| state))) ; cpu_assertions.pc
  (= false (|cpu_assertions_n reset| (|cpu_formal_h monitor_inst| state))) ; cpu_assertions.reset
  (= (|cpu_formal_is| state) (|cpu_is| (|cpu_formal_h dut| state)))
  (= (= ((_ extract 0 0) (|cpu_formal#0| state)) #b1) (|cpu_n clk| (|cpu_formal_h dut| state))) ; cpu.clk
  (= (|cpu_formal#1| state) (|cpu_n pc| (|cpu_formal_h dut| state))) ; cpu.pc
  (= false (|cpu_n reset| (|cpu_formal_h dut| state))) ; cpu.reset
  (|cpu_assertions_h| (|cpu_formal_h monitor_inst| state))
  (|cpu_h| (|cpu_formal_h dut| state))
))
(define-fun |cpu_formal_t| ((state |cpu_formal_s|) (next_state |cpu_formal_s|)) Bool (and
  (|cpu_assertions_t| (|cpu_formal_h monitor_inst| state) (|cpu_formal_h monitor_inst| next_state))
  (|cpu_t| (|cpu_formal_h dut| state) (|cpu_formal_h dut| next_state))
)) ; end of module cpu_formal
; yosys-smt2-topmod cpu_formal
; end of yosys output
